p cnf 44 122
a 26 13 0
e 1 2 3 4 5 6 7 8 9 10 11 12 14 15 16 17 18 19 20 21 22 23 24 25 27 28 29 30 31 32 33 34 35 36 37 38 39 40 41 42 43 44 0
-2 -1 0
-2 1 0
-1 -4 0
1 -4 0
1 4 -5 0
-1 -4 -5 0
1 -4 5 0
-1 4 5 0
6 3 0
6 5 0
-3 -5 -6 0
-2 6 -7 0
2 -6 -7 0
-2 -6 7 0
2 6 7 0
8 -9 -10 0
-8 9 -10 0
8 9 10 0
-8 -9 10 0
3 10 -11 0
-3 -10 -11 0
3 -10 11 0
-3 10 11 0
-12 13 -14 0
12 -13 -14 0
-12 -13 14 0
12 13 14 0
15 11 0
15 -14 0
-11 14 -15 0
16 -13 0
16 10 0
13 -10 -16 0
15 16 -17 0
-15 -16 -17 0
15 -16 17 0
-15 16 17 0
-17 11 -18 0
17 -11 -18 0
-17 -11 18 0
17 11 18 0
-19 7 0
-19 -18 0
-7 18 19 0
-20 -21 -22 0
20 21 -22 0
-20 21 22 0
20 -21 22 0
24 -3 0
24 -23 0
3 23 -24 0
25 24 0
25 -20 0
-24 20 -25 0
-22 -25 -26 0
22 25 -26 0
-22 25 26 0
22 -25 26 0
27 -19 0
27 -26 0
19 26 -27 0
28 13 0
28 -21 0
-13 21 -28 0
-29 -13 0
-29 -28 0
13 28 29 0
-30 16 0
-30 -1 0
-16 1 30 0
-31 -5 0
-31 1 0
5 -1 31 0
32 -31 0
32 5 0
31 -5 -32 0
-33 11 0
-33 8 0
-11 -8 33 0
34 17 0
34 -33 0
-17 33 -34 0
-35 -9 0
-35 -5 0
9 5 35 0
-36 -12 0
-36 -35 0
12 35 36 0
34 36 -37 0
-34 -36 -37 0
34 -36 37 0
-34 36 37 0
-38 -32 0
-38 -37 0
32 37 38 0
39 30 0
39 38 0
-30 -38 -39 0
41 -40 0
41 -28 0
40 28 -41 0
42 39 0
42 -41 0
-39 41 -42 0
43 -29 0
43 -42 0
29 42 -43 0
-44 27 0
-44 43 0
-27 -43 44 0
-22 -29 -40 19 0
-29 -7 33 0
-35 5 1 0
8 -28 -26 -9 13 0
27 -3 -25 4 0
-17 -44 25 0
-14 -4 -21 -17 20 -43 0
15 -37 30 42 -17 0
-42 36 -43 35 -28 -24 -32 7 0
-36 41 28 -32 31 -26 -30 0
-17 23 25 -14 12 -34 -1 -2 0
44 0
